data/lp_files/pEFS/142_8.lp
\ Model foo
\ LP format - for model browsing. Use MPS format to capture full model detail.
Minimize
  z
Subject To
 allocateEach[1]: x[1,1] + x[2,1] + x[3,1] + x[4,1] + x[5,1] + x[6,1]
   + x[7,1] + x[8,1] = 1
 allocateEach[2]: x[1,2] + x[2,2] + x[3,2] + x[4,2] + x[5,2] + x[6,2]
   + x[7,2] + x[8,2] = 1
 allocateAllCash: cashProportion[1] + cashProportion[2] + cashProportion[3]
   + cashProportion[4] + cashProportion[5] + cashProportion[6]
   + cashProportion[7] + cashProportion[8] = 1
 findWorstP[1,2]: z + 0.35056967572305 cashProportion[1]
   - 0.35056967572305 cashProportion[2] + 0.407011393514461 x[1,1]
   + 0.242418930762489 x[1,2] - 0.407011393514461 x[2,1]
   - 0.242418930762489 x[2,2] >= 0
 findWorstP[1,3]: z + 0.35056967572305 cashProportion[1]
   - 0.35056967572305 cashProportion[3] + 0.407011393514461 x[1,1]
   + 0.242418930762489 x[1,2] - 0.407011393514461 x[3,1]
   - 0.242418930762489 x[3,2] >= 0
 findWorstP[1,4]: z + 0.35056967572305 cashProportion[1]
   - 0.35056967572305 cashProportion[4] + 0.407011393514461 x[1,1]
   + 0.242418930762489 x[1,2] - 0.407011393514461 x[4,1]
   - 0.242418930762489 x[4,2] >= 0
 findWorstP[1,5]: z + 0.35056967572305 cashProportion[1]
   - 0.35056967572305 cashProportion[5] + 0.407011393514461 x[1,1]
   + 0.242418930762489 x[1,2] - 0.407011393514461 x[5,1]
   - 0.242418930762489 x[5,2] >= 0
 findWorstP[1,6]: z + 0.35056967572305 cashProportion[1]
   - 0.35056967572305 cashProportion[6] + 0.407011393514461 x[1,1]
   + 0.242418930762489 x[1,2] - 0.407011393514461 x[6,1]
   - 0.242418930762489 x[6,2] >= 0
 findWorstP[1,7]: z + 0.35056967572305 cashProportion[1]
   - 0.35056967572305 cashProportion[7] + 0.407011393514461 x[1,1]
   + 0.242418930762489 x[1,2] - 0.407011393514461 x[7,1]
   - 0.242418930762489 x[7,2] >= 0
 findWorstP[1,8]: z + 0.35056967572305 cashProportion[1]
   - 0.35056967572305 cashProportion[8] + 0.407011393514461 x[1,1]
   + 0.242418930762489 x[1,2] - 0.407011393514461 x[8,1]
   - 0.242418930762489 x[8,2] >= 0
 findWorstP[2,1]: z - 0.4661189768688458 cashProportion[1]
   + 0.4661189768688458 cashProportion[2] - 0.3124745091184524 x[1,1]
   - 0.2214065140127017 x[1,2] + 0.3124745091184524 x[2,1]
   + 0.2214065140127017 x[2,2] >= 0
 findWorstP[2,3]: z + 0.4661189768688458 cashProportion[2]
   - 0.4661189768688458 cashProportion[3] + 0.3124745091184524 x[2,1]
   + 0.2214065140127017 x[2,2] - 0.3124745091184524 x[3,1]
   - 0.2214065140127017 x[3,2] >= 0
 findWorstP[2,4]: z + 0.4661189768688458 cashProportion[2]
   - 0.4661189768688458 cashProportion[4] + 0.3124745091184524 x[2,1]
   + 0.2214065140127017 x[2,2] - 0.3124745091184524 x[4,1]
   - 0.2214065140127017 x[4,2] >= 0
 findWorstP[2,5]: z + 0.4661189768688458 cashProportion[2]
   - 0.4661189768688458 cashProportion[5] + 0.3124745091184524 x[2,1]
   + 0.2214065140127017 x[2,2] - 0.3124745091184524 x[5,1]
   - 0.2214065140127017 x[5,2] >= 0
 findWorstP[2,6]: z + 0.4661189768688458 cashProportion[2]
   - 0.4661189768688458 cashProportion[6] + 0.3124745091184524 x[2,1]
   + 0.2214065140127017 x[2,2] - 0.3124745091184524 x[6,1]
   - 0.2214065140127017 x[6,2] >= 0
 findWorstP[2,7]: z + 0.4661189768688458 cashProportion[2]
   - 0.4661189768688458 cashProportion[7] + 0.3124745091184524 x[2,1]
   + 0.2214065140127017 x[2,2] - 0.3124745091184524 x[7,1]
   - 0.2214065140127017 x[7,2] >= 0
 findWorstP[2,8]: z + 0.4661189768688458 cashProportion[2]
   - 0.4661189768688458 cashProportion[8] + 0.3124745091184524 x[2,1]
   + 0.2214065140127017 x[2,2] - 0.3124745091184524 x[8,1]
   - 0.2214065140127017 x[8,2] >= 0
 findWorstP[3,1]: z - 0.4234820814144302 cashProportion[1]
   + 0.4234820814144302 cashProportion[3] - 0.291885024614896 x[1,1]
   - 0.2846328939706738 x[1,2] + 0.291885024614896 x[3,1]
   + 0.2846328939706738 x[3,2] >= 0
 findWorstP[3,2]: z - 0.4234820814144302 cashProportion[2]
   + 0.4234820814144302 cashProportion[3] - 0.291885024614896 x[2,1]
   - 0.2846328939706738 x[2,2] + 0.291885024614896 x[3,1]
   + 0.2846328939706738 x[3,2] >= 0
 findWorstP[3,4]: z + 0.4234820814144302 cashProportion[3]
   - 0.4234820814144302 cashProportion[4] + 0.291885024614896 x[3,1]
   + 0.2846328939706738 x[3,2] - 0.291885024614896 x[4,1]
   - 0.2846328939706738 x[4,2] >= 0
 findWorstP[3,5]: z + 0.4234820814144302 cashProportion[3]
   - 0.4234820814144302 cashProportion[5] + 0.291885024614896 x[3,1]
   + 0.2846328939706738 x[3,2] - 0.291885024614896 x[5,1]
   - 0.2846328939706738 x[5,2] >= 0
 findWorstP[3,6]: z + 0.4234820814144302 cashProportion[3]
   - 0.4234820814144302 cashProportion[6] + 0.291885024614896 x[3,1]
   + 0.2846328939706738 x[3,2] - 0.291885024614896 x[6,1]
   - 0.2846328939706738 x[6,2] >= 0
 findWorstP[3,7]: z + 0.4234820814144302 cashProportion[3]
   - 0.4234820814144302 cashProportion[7] + 0.291885024614896 x[3,1]
   + 0.2846328939706738 x[3,2] - 0.291885024614896 x[7,1]
   - 0.2846328939706738 x[7,2] >= 0
 findWorstP[3,8]: z + 0.4234820814144302 cashProportion[3]
   - 0.4234820814144302 cashProportion[8] + 0.291885024614896 x[3,1]
   + 0.2846328939706738 x[3,2] - 0.291885024614896 x[8,1]
   - 0.2846328939706738 x[8,2] >= 0
 findWorstP[4,1]: z - 0.5414918099363747 cashProportion[1]
   + 0.5414918099363747 cashProportion[4] - 0.0942872614051712 x[1,1]
   - 0.364220928658454 x[1,2] + 0.0942872614051712 x[4,1]
   + 0.364220928658454 x[4,2] >= 0
 findWorstP[4,2]: z - 0.5414918099363747 cashProportion[2]
   + 0.5414918099363747 cashProportion[4] - 0.0942872614051712 x[2,1]
   - 0.364220928658454 x[2,2] + 0.0942872614051712 x[4,1]
   + 0.364220928658454 x[4,2] >= 0
 findWorstP[4,3]: z - 0.5414918099363747 cashProportion[3]
   + 0.5414918099363747 cashProportion[4] - 0.0942872614051712 x[3,1]
   - 0.364220928658454 x[3,2] + 0.0942872614051712 x[4,1]
   + 0.364220928658454 x[4,2] >= 0
 findWorstP[4,5]: z + 0.5414918099363747 cashProportion[4]
   - 0.5414918099363747 cashProportion[5] + 0.0942872614051712 x[4,1]
   + 0.364220928658454 x[4,2] - 0.0942872614051712 x[5,1]
   - 0.364220928658454 x[5,2] >= 0
 findWorstP[4,6]: z + 0.5414918099363747 cashProportion[4]
   - 0.5414918099363747 cashProportion[6] + 0.0942872614051712 x[4,1]
   + 0.364220928658454 x[4,2] - 0.0942872614051712 x[6,1]
   - 0.364220928658454 x[6,2] >= 0
 findWorstP[4,7]: z + 0.5414918099363747 cashProportion[4]
   - 0.5414918099363747 cashProportion[7] + 0.0942872614051712 x[4,1]
   + 0.364220928658454 x[4,2] - 0.0942872614051712 x[7,1]
   - 0.364220928658454 x[7,2] >= 0
 findWorstP[4,8]: z + 0.5414918099363747 cashProportion[4]
   - 0.5414918099363747 cashProportion[8] + 0.0942872614051712 x[4,1]
   + 0.364220928658454 x[4,2] - 0.0942872614051712 x[8,1]
   - 0.364220928658454 x[8,2] >= 0
 findWorstP[5,1]: z - 0.5237658766531361 cashProportion[1]
   + 0.5237658766531361 cashProportion[5] - 0.1429880843263061 x[1,1]
   - 0.3332460390205578 x[1,2] + 0.1429880843263061 x[5,1]
   + 0.3332460390205578 x[5,2] >= 0
 findWorstP[5,2]: z - 0.5237658766531361 cashProportion[2]
   + 0.5237658766531361 cashProportion[5] - 0.1429880843263061 x[2,1]
   - 0.3332460390205578 x[2,2] + 0.1429880843263061 x[5,1]
   + 0.3332460390205578 x[5,2] >= 0
 findWorstP[5,3]: z - 0.5237658766531361 cashProportion[3]
   + 0.5237658766531361 cashProportion[5] - 0.1429880843263061 x[3,1]
   - 0.3332460390205578 x[3,2] + 0.1429880843263061 x[5,1]
   + 0.3332460390205578 x[5,2] >= 0
 findWorstP[5,4]: z - 0.5237658766531361 cashProportion[4]
   + 0.5237658766531361 cashProportion[5] - 0.1429880843263061 x[4,1]
   - 0.3332460390205578 x[4,2] + 0.1429880843263061 x[5,1]
   + 0.3332460390205578 x[5,2] >= 0
 findWorstP[5,6]: z + 0.5237658766531361 cashProportion[5]
   - 0.5237658766531361 cashProportion[6] + 0.1429880843263061 x[5,1]
   + 0.3332460390205578 x[5,2] - 0.1429880843263061 x[6,1]
   - 0.3332460390205578 x[6,2] >= 0
 findWorstP[5,7]: z + 0.5237658766531361 cashProportion[5]
   - 0.5237658766531361 cashProportion[7] + 0.1429880843263061 x[5,1]
   + 0.3332460390205578 x[5,2] - 0.1429880843263061 x[7,1]
   - 0.3332460390205578 x[7,2] >= 0
 findWorstP[5,8]: z + 0.5237658766531361 cashProportion[5]
   - 0.5237658766531361 cashProportion[8] + 0.1429880843263061 x[5,1]
   + 0.3332460390205578 x[5,2] - 0.1429880843263061 x[8,1]
   - 0.3332460390205578 x[8,2] >= 0
 findWorstP[6,1]: z - 0.4015459519148723 cashProportion[1]
   + 0.4015459519148723 cashProportion[6] - 0.2658736134116347 x[1,1]
   - 0.3325804346734929 x[1,2] + 0.2658736134116347 x[6,1]
   + 0.3325804346734929 x[6,2] >= 0
 findWorstP[6,2]: z - 0.4015459519148723 cashProportion[2]
   + 0.4015459519148723 cashProportion[6] - 0.2658736134116347 x[2,1]
   - 0.3325804346734929 x[2,2] + 0.2658736134116347 x[6,1]
   + 0.3325804346734929 x[6,2] >= 0
 findWorstP[6,3]: z - 0.4015459519148723 cashProportion[3]
   + 0.4015459519148723 cashProportion[6] - 0.2658736134116347 x[3,1]
   - 0.3325804346734929 x[3,2] + 0.2658736134116347 x[6,1]
   + 0.3325804346734929 x[6,2] >= 0
 findWorstP[6,4]: z - 0.4015459519148723 cashProportion[4]
   + 0.4015459519148723 cashProportion[6] - 0.2658736134116347 x[4,1]
   - 0.3325804346734929 x[4,2] + 0.2658736134116347 x[6,1]
   + 0.3325804346734929 x[6,2] >= 0
 findWorstP[6,5]: z - 0.4015459519148723 cashProportion[5]
   + 0.4015459519148723 cashProportion[6] - 0.2658736134116347 x[5,1]
   - 0.3325804346734929 x[5,2] + 0.2658736134116347 x[6,1]
   + 0.3325804346734929 x[6,2] >= 0
 findWorstP[6,7]: z + 0.4015459519148723 cashProportion[6]
   - 0.4015459519148723 cashProportion[7] + 0.2658736134116347 x[6,1]
   + 0.3325804346734929 x[6,2] - 0.2658736134116347 x[7,1]
   - 0.3325804346734929 x[7,2] >= 0
 findWorstP[6,8]: z + 0.4015459519148723 cashProportion[6]
   - 0.4015459519148723 cashProportion[8] + 0.2658736134116347 x[6,1]
   + 0.3325804346734929 x[6,2] - 0.2658736134116347 x[8,1]
   - 0.3325804346734929 x[8,2] >= 0
 findWorstP[7,1]: z - 0.4246735322221043 cashProportion[1]
   + 0.4246735322221043 cashProportion[7] - 0.4112432317655802 x[1,1]
   - 0.1640832360123155 x[1,2] + 0.4112432317655802 x[7,1]
   + 0.1640832360123155 x[7,2] >= 0
 findWorstP[7,2]: z - 0.4246735322221043 cashProportion[2]
   + 0.4246735322221043 cashProportion[7] - 0.4112432317655802 x[2,1]
   - 0.1640832360123155 x[2,2] + 0.4112432317655802 x[7,1]
   + 0.1640832360123155 x[7,2] >= 0
 findWorstP[7,3]: z - 0.4246735322221043 cashProportion[3]
   + 0.4246735322221043 cashProportion[7] - 0.4112432317655802 x[3,1]
   - 0.1640832360123155 x[3,2] + 0.4112432317655802 x[7,1]
   + 0.1640832360123155 x[7,2] >= 0
 findWorstP[7,4]: z - 0.4246735322221043 cashProportion[4]
   + 0.4246735322221043 cashProportion[7] - 0.4112432317655802 x[4,1]
   - 0.1640832360123155 x[4,2] + 0.4112432317655802 x[7,1]
   + 0.1640832360123155 x[7,2] >= 0
 findWorstP[7,5]: z - 0.4246735322221043 cashProportion[5]
   + 0.4246735322221043 cashProportion[7] - 0.4112432317655802 x[5,1]
   - 0.1640832360123155 x[5,2] + 0.4112432317655802 x[7,1]
   + 0.1640832360123155 x[7,2] >= 0
 findWorstP[7,6]: z - 0.4246735322221043 cashProportion[6]
   + 0.4246735322221043 cashProportion[7] - 0.4112432317655802 x[6,1]
   - 0.1640832360123155 x[6,2] + 0.4112432317655802 x[7,1]
   + 0.1640832360123155 x[7,2] >= 0
 findWorstP[7,8]: z + 0.4246735322221043 cashProportion[7]
   - 0.4246735322221043 cashProportion[8] + 0.4112432317655802 x[7,1]
   + 0.1640832360123155 x[7,2] - 0.4112432317655802 x[8,1]
   - 0.1640832360123155 x[8,2] >= 0
 findWorstP[8,1]: z - 0.5502820195350118 cashProportion[1]
   + 0.5502820195350118 cashProportion[8] - 0.0387948823772183 x[1,1]
   - 0.4109230980877699 x[1,2] + 0.0387948823772183 x[8,1]
   + 0.4109230980877699 x[8,2] >= 0
 findWorstP[8,2]: z - 0.5502820195350118 cashProportion[2]
   + 0.5502820195350118 cashProportion[8] - 0.0387948823772183 x[2,1]
   - 0.4109230980877699 x[2,2] + 0.0387948823772183 x[8,1]
   + 0.4109230980877699 x[8,2] >= 0
 findWorstP[8,3]: z - 0.5502820195350118 cashProportion[3]
   + 0.5502820195350118 cashProportion[8] - 0.0387948823772183 x[3,1]
   - 0.4109230980877699 x[3,2] + 0.0387948823772183 x[8,1]
   + 0.4109230980877699 x[8,2] >= 0
 findWorstP[8,4]: z - 0.5502820195350118 cashProportion[4]
   + 0.5502820195350118 cashProportion[8] - 0.0387948823772183 x[4,1]
   - 0.4109230980877699 x[4,2] + 0.0387948823772183 x[8,1]
   + 0.4109230980877699 x[8,2] >= 0
 findWorstP[8,5]: z - 0.5502820195350118 cashProportion[5]
   + 0.5502820195350118 cashProportion[8] - 0.0387948823772183 x[5,1]
   - 0.4109230980877699 x[5,2] + 0.0387948823772183 x[8,1]
   + 0.4109230980877699 x[8,2] >= 0
 findWorstP[8,6]: z - 0.5502820195350118 cashProportion[6]
   + 0.5502820195350118 cashProportion[8] - 0.0387948823772183 x[6,1]
   - 0.4109230980877699 x[6,2] + 0.0387948823772183 x[8,1]
   + 0.4109230980877699 x[8,2] >= 0
 findWorstP[8,7]: z - 0.5502820195350118 cashProportion[7]
   + 0.5502820195350118 cashProportion[8] - 0.0387948823772183 x[7,1]
   - 0.4109230980877699 x[7,2] + 0.0387948823772183 x[8,1]
   + 0.4109230980877699 x[8,2] >= 0
Bounds
 z <= 1
 -infinity <= cashProportion[1] <= 1
 -infinity <= cashProportion[2] <= 1
 -infinity <= cashProportion[3] <= 1
 -infinity <= cashProportion[4] <= 1
 -infinity <= cashProportion[5] <= 1
 -infinity <= cashProportion[6] <= 1
 -infinity <= cashProportion[7] <= 1
 -infinity <= cashProportion[8] <= 1
Binaries
 x[1,1] x[1,2] x[2,1] x[2,2] x[3,1] x[3,2] x[4,1] x[4,2] x[5,1] x[5,2]
 x[6,1] x[6,2] x[7,1] x[7,2] x[8,1] x[8,2]
End
